SCIP version 5.0.0 [precision: 8 byte] [memory: block] [mode: optimized] [LP solver: NONE] [GitHash: 3bbd232]
Copyright (C) 2002-2017 Konrad-Zuse-Zentrum fuer Informationstechnik Berlin (ZIB)

External codes: 
  Readline EditLine w  GNU library for command line editing (gnu.org/s/readline)
  CppAD 20160000.1     Algorithmic Differentiation of C++ algorithms developed by B. Bell (www.coin-or.org/CppAD)
  ZLIB 1.2.5           General purpose compression library by J. Gailly and M. Adler (zlib.net)
  GMP 6.1.2            GNU Multiple Precision Arithmetic Library developed by T. Granlund (gmplib.org)

user parameter file <scip.set> not found - using default parameters

read problem <../../Split_data/output/spectf/8/1_sample_spectf.logreg>
============

File name	:	../../Split_data/output/spectf/8/1_sample_spectf.logreg
Problem name 	:	1_sample_spectf
Number of data	:	214
Number of var	:	44
The given data has linear independence

[dim=1] time: 0.010116
[dim=2] time: 0.026312
[dim=3] time: 0.037355
[dim=4] time: 0.044104
[dim=5] time: 0.051233
[dim=6] time: 0.057881
[dim=7] time: 0.064209
[dim=8] time: 0.071061
[dim=9] time: 0.077
[dim=10] time: 0.082848
[dim=11] time: 0.08886
[dim=12] Time of forward = 0.094729sec.
AIC: 140.273
k: 11

[dim=44] time: 0.029383
[dim=43] time: 0.044067
[dim=42] time: 0.066428
[dim=41] time: 0.089768
[dim=40] time: 0.112913
[dim=39] time: 0.128066
[dim=38] time: 0.143379
[dim=37] time: 0.157829
[dim=36] time: 0.168738
[dim=35] time: 0.182119
[dim=34] time: 0.193565
[dim=33] time: 0.206078
[dim=32] time: 0.218885
[dim=31] time: 0.230211
[dim=30] time: 0.242099
[dim=29] time: 0.25319
[dim=28] time: 0.261235
[dim=27] time: 0.269499
[dim=26] time: 0.276962
[dim=25] time: 0.285697
[dim=24] time: 0.29305
[dim=23] time: 0.305747
[dim=22] time: 0.318639
[dim=21] time: 0.329083
[dim=20] time: 0.340057
[dim=19] time: 0.34621
[dim=18] time: 0.351302
[dim=17] time: 0.355796
[dim=16] time: 0.360761
[dim=15] time: 0.364833
[dim=14] time: 0.368995
[dim=13] time: 0.372042
[dim=12] time: 0.375143
[dim=11] Time of backward = 0.378046sec.
AIC: 139.863
k: 12
